(set-logic QF_S)
(declare-fun var0 () String)
(declare-fun var1 () String)
(declare-fun var2 () String)
(declare-fun var3 () String)
(declare-fun var4 () Int)
(declare-fun var5 () Int)
(declare-fun var6 () Int)
(declare-fun var7 () Int)
(assert (>= (str.to.int var0) (str.to.int var1)))
(assert (str.in.re var2 re.allchar))
(assert (>= (str.indexof (str.at var3 var4) (str.substr var1 var5 var6) (str.len var1)) (str.to.int (str.at var3 var7))))
(assert (<= (str.indexof var1 var2 var5) (str.to.int var3)))
(check-sat)